5
25
0 36000
14160 21360
25200 32400
12960 20160
28680 35880
6540 13740
25080 32280
3000 10200
10080 17280
12780 19980
17760 24960
27000 34200
26100 33300
25860 33060
4500 11700
25080 32280
19620 26820
2400 9600
8820 16020
15240 22440
18180 25380
20280 27480
8340 15540
8580 15780
11820 19020
10080 17280